%mem=3000MB
%nprocs=4
#T opt B3LYP/GenECP pop=(nbo,savenbo) geom=printinputorient

FePorphyrin_B3LYP_Stuttgart_6-31g**

0 1
 Fe                   -0.01     -0.498    -0.004 
 C                    -1.049    -0.442     3.297 
 C                     3.324    -0.319     1.068 
 C                     1.082    -0.786    -3.274 
 C                    -3.305    -0.589    -1.066 
 N                     0.949    -0.414     1.814 
 C                     0.342    -0.393     3.062 
 C                     1.344    -0.284     4.124 
 C                     2.579    -0.229     3.493 
 C                     2.312    -0.315     2.056 
 H                     3.577    -0.134     3.942 
 H                     1.118    -0.242     5.197 
 N                     1.835    -0.555    -0.914 
 C                     3.084    -0.438    -0.32 
 C                     4.144    -0.481    -1.329 
 C                     3.511    -0.633    -2.555 
 C                     2.074    -0.671    -2.276 
 H                     5.218    -0.401    -1.115 
 H                     3.957    -0.7      -3.556 
 N                    -0.924    -0.676    -1.792 
 C                    -0.311    -0.772    -3.034 
 C                    -1.311    -0.826    -4.101 
 C                    -2.553    -0.75     -3.482 
 C                    -2.292    -0.661    -2.047 
 H                    -1.082    -0.896    -5.171 
 H                    -3.55     -0.749    -3.939 
 N                    -1.804    -0.533     0.92 
 C                    -3.061    -0.535     0.323 
 C                    -4.115    -0.495     1.334 
 C                    -3.473    -0.476     2.566 
 C                    -2.037    -0.492     2.288 
 H                    -5.191    -0.483     1.119 
 H                    -3.916    -0.438     3.57 
 H                    -1.392    -0.413     4.342 
 H                     4.367    -0.223     1.402 
 H                     1.416    -0.866    -4.318 
 H                    -4.35     -0.58     -1.406 

N C O H
6-31g**
****
Fe     0 
S   3   1.00
     20.5130280              0.2347140        
      9.7767920             -0.8775270        
      4.5735990             -0.3416360        
S   1   1.00
      1.9499100              1.0000000        
S   1   1.00
      0.7664880              1.0000000        
S   1   1.00
      0.1007980              1.0000000        
S   1   1.00
      0.0375160              1.0000000        
S   1   1.00
      0.0100000              1.0000000        
P   2   1.00
     63.1253260              0.0271470        
     11.6568550             -1.0118750        
P   2   1.00
      5.1786610              0.2151680        
      2.0355320              0.8250950        
P   1   1.00
      0.7088180              1.0000000        
P   1   1.00
      0.1101680              1.0000000        
P   1   1.00
      0.0294440              1.0000000        
D   4   1.00
     33.6667900              0.0365290        
     10.2356950              0.1828250        
      3.4664880              0.4370690        
      1.1272960              0.5751780        
D   1   1.00
      0.3082470              1.0000000        
D   1   1.00
      0.0800000              1.0000000        
F   1   1.00
      2.0000000              1.0000000        
****

FE     0
FE-ECP     3     10
f-ul potential
  1
2      1.000000000            0.000000000      
s-ul potential
  2
2     20.930000000          253.749588000      
2      9.445000000           37.922845000      
p-ul potential
  2
2     21.760000000          161.036812000      
2      9.178000000           27.651298000      
d-ul potential
  2
2     25.900000000          -24.431276000      
2      8.835000000           -1.434251000

